
  12    4
  10   10   10   10

   0   0   0   0   0   5 2 4 5 10 11 
   2  10  10  10  10   1 3 
   5  10  10  10  10   2 7 6 
   2  10  10  10  10   2 7 6 
   2  10  10  10  10   2 9 7 
   8  10  10  10  10   1 8 
   3  10  10  10  10   1 12
   7  10  10  10  10   1 12
   2  10  10  10  10   1 12
   2  10  10  10  10   1 12
   1  10  10  10  10   1 12
   0   0   0   0   0   0 
